0 80 79 78 34 76 77 20 21 22 23 63 1 24 17 18 19 8 12 9 13 10 14 15 11 73 56 60 57 61 59 74 55 62 58 69 66 70 67 5 7 6 3 31 71 68 72 65 49 42 43 44 45 46 47 48 91 90 75 89 92 83 82 88 87 86 85 84 35 41 40 25 94 93 96 95 39 38 37 36 97 98 99 33 29 26 27 28 16 32 2 30 4 52 51 50 54 64 53 81 0 